NAME : tsp20_4.175.tour
COMMENT : Length = 175
COMMENT : Found by LKH [Keld Helsgaun]
TYPE : TOUR
DIMENSION : 20
TOUR_SECTION
1
2
19
20
3
10
12
13
5
15
7
11
8
17
4
14
16
9
6
18
-1
EOF
